47 47
9 7
10 6
2 4
5 3
7 4
4 5
3 7
4 3
8 4
9 5
3 5
9 8
7 9
10 8
4 2
6 10
3 8
8 10
5 9
4 10
10 7
7 10
9 2
1 5
5 10
5 2
8 2
7 2
9 9
10 9
8 3
2 10
6 8
9 6
1 4
10 2
10 10
5 4
8 5
5 3
1 1
2 8
2 4
4 5
10 1
7 3
5 4
20 19 65
11 10 80
15 18 85
14 12 62
11 16 75
12 17 51
14 15 83
19 18 54
20 12 98
13 16 74
11 19 100
13 18 65
10 16 96
20 17 63
10 14 93
20 12 52
11 14 68
20 13 55
13 20 95
13 16 64
13 16 59
16 17 71
17 16 85
20 15 84
15 15 95
19 11 75
18 10 67
12 19 79
19 15 51
16 17 54
10 10 55
15 20 68
13 10 62
19 19 51
15 19 64
18 20 85
11 20 58
18 10 98
13 12 96
17 13 67
14 13 69
19 14 82
11 12 99
16 10 81
15 18 71
18 16 91
12 15 59
